208387
57,75,23,101,73,13,72,84,69,93,95,77,60,102,3,14,90,78,42,34,74,31,62,6,52,83,32,81,71,44,24,85,45,76,5,39,55,19,15,63,89,16,20,68,87,12,30,64,51,4,54,28,29,97,105,96,7,61,21,50,99,98,67,18,41,80,49,25,33,82,56,79,88,92,11,22,91,8,26,86,47,1,48,100,37,103,66,40,10,94,53,70,35,104,59,2,38,36,46,17,0,27,9,43,58,65